units real
atom_style full

dimension 3
boundary p p p

bond_style hybrid harmonic
angle_style hybrid harmonic
dihedral_style hybrid fourier
improper_style cvff
special_bonds lj 0.0 0.0 0.5 coul 0.0 0.0 0.8333333333 
pair_style lj/cut/coul/long 9.0 9.0
pair_modify mix arithmetic tail yes

read_data LAMMPS/polyurethane_isocyanate/poly(2,4-Diisocyanato-1-methylbenzene-co-6-[4-[4-(6-hydroxyhexoxy)phenyl]phenoxy]hexan-1-ol)/poly(2,4-Diisocyanato-1-methylbenzene-co-6-[4-[4-(6-hydroxyhexoxy)phenyl]phenoxy]hexan-1-ol).lammps

thermo_style custom ebond eangle edihed eimp epair evdwl ecoul elong etail pe

kspace_style pppm 1e-4
run 0
