units real
atom_style full

dimension 3
boundary p p p

bond_style hybrid harmonic
angle_style hybrid harmonic
dihedral_style hybrid fourier
improper_style cvff
special_bonds lj 0.0 0.0 0.5 coul 0.0 0.0 0.8333333333 
pair_style lj/cut/coul/long 9.0 9.0
pair_modify mix arithmetic tail yes

read_data LAMMPS_new/polyamide/poly(4-[4-[4-[6-[4-(4-aminophenyl)-2-(trifluoromethyl)phenoxy]-1,3,3-trimethyl-2H-inden-1-yl]phenoxy]-3-(trifluoromethyl)phenyl]aniline-co-4-(3,4-dicarboxyphenoxy)phthalic acid)/poly(4-[4-[4-[6-[4-(4-aminophenyl)-2-(trifluoromethyl)phenoxy]-1,3,3-trimethyl-2H-inden-1-yl]phenoxy]-3-(trifluoromethyl)phenyl]aniline-co-4-(3,4-dicarboxyphenoxy)phthalic acid).lammps

thermo_style custom ebond eangle edihed eimp epair evdwl ecoul elong etail pe

kspace_style pppm 1e-4
run 0
